c "199041.clq"
p edge 100 1344
e 1 17
e 1 18
e 1 19
e 1 20
e 1 21
e 1 22
e 1 23
e 1 30
e 1 31
e 1 32
e 1 33
e 1 36
e 1 44
e 1 49
e 1 56
e 1 58
e 1 60
e 1 61
e 1 74
e 1 75
e 1 76
e 1 88
e 1 91
e 2 17
e 2 18
e 2 19
e 2 20
e 2 22
e 2 23
e 2 24
e 2 25
e 2 29
e 2 30
e 2 31
e 2 32
e 2 33
e 2 35
e 2 37
e 2 38
e 2 43
e 2 47
e 2 48
e 2 53
e 2 58
e 2 61
e 2 75
e 2 76
e 2 78
e 2 80
e 2 87
e 2 92
e 3 17
e 3 18
e 3 19
e 3 20
e 3 21
e 3 24
e 3 25
e 3 28
e 3 32
e 3 33
e 3 36
e 3 37
e 3 40
e 3 41
e 3 47
e 3 51
e 3 54
e 3 55
e 3 56
e 3 61
e 3 65
e 3 67
e 3 70
e 3 71
e 3 75
e 3 76
e 3 77
e 3 80
e 3 81
e 3 82
e 3 83
e 3 85
e 3 86
e 3 88
e 3 90
e 3 91
e 3 97
e 4 17
e 4 18
e 4 19
e 4 20
e 4 21
e 4 23
e 4 24
e 4 26
e 4 28
e 4 30
e 4 34
e 4 35
e 4 39
e 4 41
e 4 42
e 4 44
e 4 52
e 4 62
e 4 66
e 4 72
e 4 80
e 4 89
e 4 96
e 5 17
e 5 18
e 5 19
e 5 20
e 5 21
e 5 22
e 5 23
e 5 24
e 5 25
e 5 27
e 5 31
e 5 33
e 5 34
e 5 38
e 5 45
e 5 46
e 5 49
e 5 52
e 5 56
e 5 59
e 5 66
e 5 69
e 5 74
e 5 80
e 5 81
e 5 82
e 5 84
e 5 100
e 6 17
e 6 18
e 6 19
e 6 20
e 6 21
e 6 23
e 6 28
e 6 30
e 6 38
e 6 39
e 6 42
e 6 46
e 6 47
e 6 63
e 6 66
e 6 72
e 6 81
e 6 87
e 6 95
e 6 97
e 7 17
e 7 18
e 7 19
e 7 20
e 7 21
e 7 22
e 7 23
e 7 24
e 7 25
e 7 26
e 7 27
e 7 30
e 7 31
e 7 32
e 7 34
e 7 40
e 7 42
e 7 46
e 7 49
e 7 54
e 7 55
e 7 57
e 7 63
e 7 64
e 7 66
e 7 72
e 7 78
e 7 80
e 8 17
e 8 18
e 8 19
e 8 20
e 8 21
e 8 22
e 8 24
e 8 25
e 8 26
e 8 27
e 8 29
e 8 31
e 8 32
e 8 33
e 8 37
e 8 44
e 8 45
e 8 46
e 8 56
e 8 60
e 8 65
e 8 66
e 8 68
e 8 77
e 8 84
e 8 90
e 8 91
e 8 93
e 8 99
e 9 17
e 9 18
e 9 19
e 9 20
e 9 22
e 9 23
e 9 25
e 9 27
e 9 28
e 9 40
e 9 41
e 9 45
e 9 46
e 9 48
e 9 49
e 9 63
e 9 75
e 9 80
e 9 83
e 9 85
e 10 17
e 10 18
e 10 19
e 10 21
e 10 23
e 10 24
e 10 25
e 10 28
e 10 30
e 10 40
e 10 43
e 10 58
e 10 60
e 10 71
e 10 75
e 10 77
e 10 94
e 11 17
e 11 22
e 11 26
e 11 27
e 11 34
e 11 43
e 11 46
e 11 59
e 11 82
e 11 92
e 12 17
e 12 18
e 12 20
e 12 21
e 12 22
e 12 32
e 12 33
e 12 35
e 12 41
e 12 42
e 12 43
e 12 47
e 12 68
e 12 69
e 12 74
e 12 77
e 12 80
e 12 86
e 12 94
e 12 96
e 13 17
e 13 18
e 13 19
e 13 20
e 13 21
e 13 23
e 13 24
e 13 27
e 13 30
e 13 33
e 13 38
e 13 41
e 13 45
e 13 48
e 13 51
e 13 53
e 13 54
e 13 59
e 13 60
e 13 65
e 13 66
e 13 69
e 13 73
e 13 93
e 13 98
e 14 17
e 14 18
e 14 19
e 14 20
e 14 21
e 14 22
e 14 23
e 14 24
e 14 25
e 14 26
e 14 29
e 14 33
e 14 34
e 14 37
e 14 44
e 14 50
e 14 52
e 14 55
e 14 57
e 14 59
e 14 64
e 14 65
e 14 70
e 14 71
e 14 73
e 14 76
e 14 77
e 14 79
e 14 81
e 14 82
e 14 91
e 14 99
e 15 17
e 15 18
e 15 19
e 15 20
e 15 22
e 15 24
e 15 25
e 15 26
e 15 27
e 15 28
e 15 29
e 15 32
e 15 35
e 15 38
e 15 39
e 15 40
e 15 49
e 15 53
e 15 57
e 15 58
e 15 68
e 15 76
e 15 84
e 15 87
e 15 90
e 15 96
e 16 17
e 16 18
e 16 19
e 16 21
e 16 22
e 16 26
e 16 27
e 16 30
e 16 39
e 16 44
e 16 45
e 16 52
e 16 54
e 16 57
e 16 70
e 16 76
e 16 81
e 16 84
e 16 87
e 16 99
e 17 18
e 17 19
e 17 20
e 17 21
e 17 22
e 17 23
e 17 24
e 17 25
e 17 26
e 17 27
e 17 28
e 17 29
e 17 30
e 17 31
e 17 34
e 17 36
e 17 37
e 17 39
e 17 41
e 17 43
e 17 45
e 17 48
e 17 50
e 17 54
e 17 56
e 17 58
e 17 60
e 17 61
e 17 64
e 17 66
e 17 67
e 17 73
e 17 81
e 17 83
e 17 86
e 17 87
e 17 93
e 17 97
e 17 100
e 18 19
e 18 20
e 18 21
e 18 22
e 18 23
e 18 24
e 18 25
e 18 26
e 18 27
e 18 28
e 18 29
e 18 30
e 18 31
e 18 32
e 18 34
e 18 35
e 18 36
e 18 37
e 18 38
e 18 39
e 18 40
e 18 41
e 18 42
e 18 44
e 18 46
e 18 47
e 18 52
e 18 56
e 18 58
e 18 60
e 18 62
e 18 63
e 18 64
e 18 65
e 18 66
e 18 68
e 18 82
e 18 88
e 18 93
e 18 95
e 18 99
e 18 100
e 19 20
e 19 21
e 19 22
e 19 23
e 19 24
e 19 26
e 19 28
e 19 29
e 19 31
e 19 33
e 19 35
e 19 36
e 19 37
e 19 38
e 19 40
e 19 42
e 19 43
e 19 44
e 19 45
e 19 49
e 19 50
e 19 53
e 19 55
e 19 58
e 19 64
e 19 70
e 19 71
e 19 72
e 19 73
e 19 77
e 19 79
e 19 81
e 19 86
e 19 90
e 19 93
e 19 100
e 20 21
e 20 22
e 20 23
e 20 24
e 20 25
e 20 26
e 20 27
e 20 28
e 20 29
e 20 30
e 20 31
e 20 32
e 20 33
e 20 34
e 20 36
e 20 37
e 20 40
e 20 41
e 20 45
e 20 51
e 20 52
e 20 55
e 20 56
e 20 61
e 20 68
e 20 69
e 20 71
e 20 73
e 20 78
e 20 80
e 20 84
e 20 88
e 20 89
e 20 90
e 20 92
e 20 96
e 21 22
e 21 23
e 21 25
e 21 26
e 21 28
e 21 29
e 21 30
e 21 31
e 21 32
e 21 33
e 21 34
e 21 35
e 21 36
e 21 38
e 21 39
e 21 40
e 21 41
e 21 42
e 21 45
e 21 47
e 21 55
e 21 56
e 21 60
e 21 66
e 21 68
e 21 69
e 21 73
e 21 76
e 21 79
e 21 82
e 21 86
e 21 91
e 21 94
e 21 100
e 22 23
e 22 24
e 22 25
e 22 26
e 22 27
e 22 28
e 22 29
e 22 30
e 22 35
e 22 37
e 22 38
e 22 39
e 22 43
e 22 44
e 22 48
e 22 53
e 22 55
e 22 56
e 22 58
e 22 60
e 22 69
e 22 76
e 22 84
e 22 86
e 22 91
e 22 98
e 22 99
e 23 24
e 23 25
e 23 26
e 23 27
e 23 28
e 23 29
e 23 30
e 23 33
e 23 34
e 23 35
e 23 36
e 23 37
e 23 39
e 23 40
e 23 45
e 23 46
e 23 48
e 23 49
e 23 52
e 23 53
e 23 54
e 23 55
e 23 57
e 23 58
e 23 62
e 23 65
e 23 67
e 23 68
e 23 73
e 23 75
e 23 79
e 23 84
e 23 87
e 23 88
e 23 93
e 23 100
e 24 25
e 24 26
e 24 27
e 24 28
e 24 29
e 24 31
e 24 34
e 24 35
e 24 36
e 24 38
e 24 40
e 24 43
e 24 44
e 24 46
e 24 48
e 24 49
e 24 50
e 24 51
e 24 53
e 24 54
e 24 57
e 24 59
e 24 63
e 24 64
e 24 65
e 24 69
e 24 70
e 24 71
e 24 78
e 24 81
e 24 83
e 24 87
e 24 89
e 24 90
e 24 91
e 24 93
e 24 95
e 24 96
e 24 99
e 25 26
e 25 27
e 25 29
e 25 30
e 25 32
e 25 34
e 25 36
e 25 37
e 25 42
e 25 46
e 25 47
e 25 49
e 25 50
e 25 51
e 25 53
e 25 55
e 25 57
e 25 59
e 25 64
e 25 66
e 25 68
e 25 71
e 25 74
e 25 75
e 25 76
e 25 78
e 25 84
e 25 85
e 25 94
e 25 96
e 25 97
e 25 98
e 26 27
e 26 28
e 26 29
e 26 30
e 26 31
e 26 32
e 26 33
e 26 35
e 26 38
e 26 39
e 26 42
e 26 43
e 26 45
e 26 47
e 26 48
e 26 52
e 26 53
e 26 54
e 26 60
e 26 61
e 26 62
e 26 65
e 26 66
e 26 67
e 26 77
e 26 80
e 26 83
e 26 85
e 26 86
e 26 88
e 26 89
e 26 92
e 26 97
e 26 99
e 27 28
e 27 29
e 27 31
e 27 32
e 27 34
e 27 35
e 27 38
e 27 39
e 27 42
e 27 46
e 27 48
e 27 50
e 27 52
e 27 53
e 27 56
e 27 59
e 27 64
e 27 65
e 27 70
e 27 75
e 27 78
e 27 79
e 27 83
e 27 85
e 27 86
e 27 89
e 27 100
e 28 29
e 28 31
e 28 36
e 28 38
e 28 39
e 28 40
e 28 41
e 28 44
e 28 47
e 28 48
e 28 49
e 28 50
e 28 51
e 28 53
e 28 56
e 28 60
e 28 62
e 28 63
e 28 65
e 28 71
e 28 74
e 28 76
e 28 78
e 28 79
e 28 80
e 28 82
e 28 93
e 28 96
e 28 99
e 29 31
e 29 32
e 29 33
e 29 35
e 29 36
e 29 41
e 29 42
e 29 47
e 29 48
e 29 55
e 29 57
e 29 60
e 29 72
e 29 73
e 29 74
e 29 76
e 29 79
e 29 80
e 29 87
e 29 92
e 29 93
e 29 94
e 29 96
e 30 31
e 30 32
e 30 33
e 30 34
e 30 35
e 30 36
e 30 39
e 30 43
e 30 47
e 30 49
e 30 50
e 30 51
e 30 53
e 30 54
e 30 55
e 30 57
e 30 58
e 30 59
e 30 62
e 30 64
e 30 66
e 30 69
e 30 73
e 30 75
e 30 77
e 30 78
e 30 80
e 30 84
e 30 85
e 30 86
e 30 87
e 30 90
e 30 99
e 31 32
e 31 33
e 31 34
e 31 35
e 31 36
e 31 37
e 31 38
e 31 41
e 31 43
e 31 45
e 31 46
e 31 47
e 31 48
e 31 49
e 31 50
e 31 55
e 31 56
e 31 59
e 31 62
e 31 63
e 31 65
e 31 68
e 31 70
e 31 71
e 31 75
e 31 78
e 31 80
e 31 82
e 31 84
e 31 88
e 31 91
e 31 95
e 31 96
e 31 98
e 31 100
e 32 34
e 32 35
e 32 36
e 32 37
e 32 40
e 32 42
e 32 44
e 32 49
e 32 52
e 32 54
e 32 57
e 32 60
e 32 62
e 32 67
e 32 69
e 32 73
e 32 74
e 32 84
e 32 88
e 32 90
e 32 92
e 33 38
e 33 39
e 33 49
e 33 50
e 33 51
e 33 55
e 33 64
e 33 67
e 33 68
e 33 86
e 33 88
e 33 89
e 33 90
e 33 92
e 34 37
e 34 39
e 34 41
e 34 42
e 34 44
e 34 45
e 34 50
e 34 51
e 34 52
e 34 53
e 34 55
e 34 61
e 34 62
e 34 65
e 34 71
e 34 79
e 34 83
e 34 88
e 34 90
e 34 98
e 35 36
e 35 37
e 35 41
e 35 46
e 35 47
e 35 48
e 35 50
e 35 53
e 35 54
e 35 56
e 35 58
e 35 60
e 35 64
e 35 67
e 35 74
e 35 79
e 35 84
e 35 87
e 35 92
e 35 93
e 35 94
e 35 97
e 36 37
e 36 40
e 36 41
e 36 43
e 36 44
e 36 45
e 36 46
e 36 50
e 36 52
e 36 54
e 36 59
e 36 67
e 36 69
e 36 70
e 36 72
e 36 74
e 36 75
e 36 76
e 36 95
e 37 38
e 37 39
e 37 42
e 37 43
e 37 46
e 37 51
e 37 54
e 37 59
e 37 77
e 37 94
e 37 100
e 38 40
e 38 41
e 38 42
e 38 43
e 38 44
e 38 45
e 38 48
e 38 50
e 38 51
e 38 60
e 38 63
e 38 64
e 38 66
e 38 67
e 38 68
e 38 78
e 38 80
e 38 82
e 38 83
e 38 85
e 38 87
e 38 95
e 38 97
e 38 98
e 39 40
e 39 42
e 39 43
e 39 51
e 39 56
e 39 58
e 39 60
e 39 63
e 39 65
e 39 67
e 39 73
e 39 76
e 39 77
e 39 78
e 39 81
e 39 83
e 39 85
e 39 90
e 39 95
e 40 45
e 40 51
e 40 54
e 40 57
e 40 60
e 40 61
e 40 69
e 40 70
e 40 76
e 40 81
e 40 84
e 40 86
e 40 93
e 40 94
e 40 98
e 41 44
e 41 47
e 41 50
e 41 59
e 41 61
e 41 62
e 41 67
e 41 68
e 41 78
e 41 80
e 41 81
e 41 84
e 41 89
e 41 95
e 41 96
e 41 97
e 42 43
e 42 44
e 42 53
e 42 54
e 42 58
e 42 59
e 42 61
e 42 63
e 42 68
e 42 79
e 42 85
e 42 87
e 43 47
e 43 50
e 43 57
e 43 59
e 43 64
e 43 67
e 43 68
e 43 72
e 43 74
e 43 94
e 44 46
e 44 47
e 44 49
e 44 52
e 44 59
e 44 70
e 44 77
e 44 92
e 44 95
e 45 48
e 45 52
e 45 53
e 45 55
e 45 57
e 45 64
e 45 66
e 45 69
e 45 71
e 45 73
e 45 79
e 45 82
e 45 83
e 45 88
e 45 90
e 45 92
e 45 93
e 45 96
e 46 57
e 46 58
e 46 61
e 46 66
e 46 70
e 46 73
e 46 85
e 46 89
e 46 100
e 47 48
e 47 49
e 47 51
e 47 56
e 47 57
e 47 59
e 47 61
e 47 66
e 47 69
e 47 73
e 47 78
e 47 79
e 47 80
e 47 91
e 48 51
e 48 52
e 48 63
e 48 77
e 48 78
e 48 89
e 48 95
e 48 97
e 48 98
e 49 61
e 49 62
e 49 67
e 49 72
e 49 74
e 49 75
e 49 79
e 49 86
e 49 88
e 49 91
e 50 51
e 50 58
e 50 61
e 50 62
e 50 63
e 50 75
e 50 77
e 50 78
e 51 52
e 51 55
e 51 62
e 51 63
e 51 72
e 51 74
e 51 75
e 51 83
e 51 95
e 52 54
e 52 62
e 52 64
e 52 67
e 52 72
e 52 82
e 52 85
e 52 86
e 52 99
e 53 62
e 53 69
e 53 71
e 53 91
e 53 93
e 53 99
e 54 62
e 54 63
e 54 65
e 54 68
e 54 69
e 54 81
e 54 91
e 54 97
e 54 98
e 55 56
e 55 57
e 55 70
e 55 72
e 55 73
e 56 58
e 56 69
e 56 72
e 56 74
e 56 83
e 56 86
e 56 92
e 56 95
e 56 97
e 56 99
e 57 75
e 57 91
e 57 98
e 58 63
e 58 68
e 58 72
e 58 73
e 58 77
e 58 94
e 59 61
e 59 64
e 59 82
e 59 86
e 59 88
e 59 89
e 59 95
e 60 61
e 60 70
e 60 71
e 60 79
e 60 81
e 60 82
e 60 87
e 60 91
e 60 98
e 61 71
e 61 85
e 61 86
e 61 87
e 61 92
e 61 94
e 61 99
e 62 63
e 62 65
e 62 67
e 62 72
e 62 76
e 62 89
e 62 90
e 63 65
e 63 70
e 63 71
e 63 79
e 63 92
e 64 67
e 64 82
e 64 94
e 65 70
e 65 94
e 66 70
e 66 72
e 66 89
e 66 92
e 66 96
e 67 79
e 67 82
e 68 74
e 68 76
e 68 94
e 69 71
e 69 84
e 69 85
e 69 96
e 69 99
e 69 100
e 70 74
e 70 81
e 70 84
e 71 72
e 71 75
e 71 78
e 71 83
e 71 90
e 72 74
e 72 87
e 72 91
e 72 93
e 72 95
e 72 97
e 73 82
e 73 89
e 73 100
e 74 77
e 74 81
e 74 83
e 75 77
e 75 88
e 75 89
e 76 81
e 76 92
e 76 97
e 76 98
e 76 99
e 76 100
e 77 83
e 77 85
e 77 100
e 78 97
e 79 85
e 80 83
e 80 87
e 80 89
e 81 85
e 81 94
e 81 98
e 82 92
e 82 93
e 82 96
e 82 98
e 83 100
e 84 97
e 85 93
e 85 96
e 85 100
e 86 88
e 86 90
e 86 95
e 87 88
e 87 89
e 87 90
e 88 94
e 89 91
e 89 95
e 89 97
e 90 98
e 93 98
e 93 99
e 95 96
